NAME : zqloutput/eax-hard-simple-rescaleandround/50-6.tsp
TYPE : TSP
DIMENSION : 50
EDGE_WEIGHT_TYPE : EUC_2D
NODE_COORD_SECTION
1 981270 986407
2 771532 946431
3 982336 26538
4 783963 693361
5 727901 687165
6 901187 912344
7 843620 667085
8 727128 670931
9 509691 291860
10 699187 167181
11 84780 251488
12 401221 733653
13 464580 939821
14 513890 113901
15 189606 606464
16 761720 643079
17 326974 913119
18 319776 564559
19 636334 926461
20 737616 374709
21 402866 680211
22 680715 347592
23 404145 925634
24 709468 479886
25 481958 833891
26 390055 819274
27 998652 184783
28 587392 149319
29 693940 24774
30 201507 303609
31 677273 561126
32 413451 947575
33 905592 196069
34 312965 781027
35 249033 179048
36 3637 314850
37 186814 89437
38 102217 675903
39 753246 864047
40 145023 490773
41 443393 838763
42 381065 917989
43 525950 580197
44 3794 866516
45 845360 857365
46 531593 93121
47 85157 369998
48 21711 607487
49 938398 516883
50 620796 809408
EOF
